
Gurobi 9.0.1 (linux64) logging started Thu Apr 30 16:39:52 2020

Gurobi Optimizer version 9.0.1 build v9.0.1rc0 (linux64)
Optimize a model with 12677 rows, 12060 columns and 201690 nonzeros
Model fingerprint: 0xd2f5ecd7
Variable types: 0 continuous, 12060 integer (12032 binary)
Coefficient statistics:
  Matrix range     [1e+00, 1e+01]
  Objective range  [1e+00, 1e+02]
  Bounds range     [1e+00, 1e+00]
  RHS range        [1e+00, 1e+00]

User MIP start produced solution with objective 916 (0.27s)
Loaded user MIP start with objective 916

Presolve removed 3752 rows and 3270 columns
Presolve time: 2.96s
Presolved: 8925 rows, 8790 columns, 167925 nonzeros
Variable types: 0 continuous, 8790 integer (8764 binary)

Root simplex log...

Iteration    Objective       Primal Inf.    Dual Inf.      Time
    3309    4.7870201e+02   6.405191e+02   0.000000e+00      5s
    6791    4.8781392e+02   1.449420e+03   0.000000e+00     10s
   10154    4.8923677e+02   0.000000e+00   0.000000e+00     15s

Root relaxation: objective 4.892368e+02, 10154 iterations, 11.45 seconds
Total elapsed time = 15.27s

    Nodes    |    Current Node    |     Objective Bounds      |     Work
 Expl Unexpl |  Obj  Depth IntInf | Incumbent    BestBd   Gap | It/Node Time

     0     0  489.23677    0 2052  916.00000  489.23677  46.6%     -   18s
     0     0  514.04863    0 1790  916.00000  514.04863  43.9%     -   64s
     0     0  514.52704    0 1762  916.00000  514.52704  43.8%     -   70s
     0     0  514.55800    0 1697  916.00000  514.55800  43.8%     -   72s
     0     0  514.55800    0 1660  916.00000  514.55800  43.8%     -   73s
     0     0  527.78949    0 2054  916.00000  527.78949  42.4%     -  132s
     0     0  528.37352    0 2056  916.00000  528.37352  42.3%     -  146s
     0     0  528.42755    0 2043  916.00000  528.42755  42.3%     -  153s
     0     0  528.46638    0 2029  916.00000  528.46638  42.3%     -  159s
     0     0  528.46641    0 2014  916.00000  528.46641  42.3%     -  159s
     0     0  532.22868    0 2027  916.00000  532.22868  41.9%     -  247s
     0     0  532.63568    0 2022  916.00000  532.63568  41.9%     -  285s
     0     0  532.69785    0 2030  916.00000  532.69785  41.8%     -  298s
     0     0  532.71014    0 2017  916.00000  532.71014  41.8%     -  304s
     0     0  532.72216    0 2015  916.00000  532.72216  41.8%     -  308s
     0     0  535.50633    0 2130  916.00000  535.50633  41.5%     -  408s
     0     0  536.02030    0 2162  916.00000  536.02030  41.5%     -  465s
     0     0  536.24937    0 2139  916.00000  536.24937  41.5%     -  491s
     0     0  536.26414    0 2154  916.00000  536.26414  41.5%     -  497s
     0     0  536.98306    0 2150  916.00000  536.98306  41.4%     -  547s
     0     0  537.15305    0 2152  916.00000  537.15305  41.4%     -  569s
     0     0  537.19908    0 2136  916.00000  537.19908  41.4%     -  583s
     0     0  537.20388    0 2140  916.00000  537.20388  41.4%     -  587s
     0     0  537.61041    0 2206  916.00000  537.61041  41.3%     -  635s
     0     0  537.65975    0 2223  916.00000  537.65975  41.3%     -  653s
     0     0  537.66967    0 2188  916.00000  537.66967  41.3%     -  661s
     0     0  538.18095    0 2143  916.00000  538.18095  41.2%     -  723s
     0     0  538.26174    0 2180  916.00000  538.26174  41.2%     -  750s
     0     0  538.28706    0 2186  916.00000  538.28706  41.2%     -  759s
     0     0  538.28955    0 2186  916.00000  538.28955  41.2%     -  763s
     0     0  539.24639    0 2175  916.00000  539.24639  41.1%     -  822s
     0     0  539.37434    0 2151  916.00000  539.37434  41.1%     -  848s
     0     0  539.38964    0 2149  916.00000  539.38964  41.1%     -  856s
     0     0  540.19041    0 2157  916.00000  540.19041  41.0%     -  916s
     0     0  540.31299    0 2158  916.00000  540.31299  41.0%     -  939s
     0     0  540.33647    0 2142  916.00000  540.33647  41.0%     -  948s
     0     0  540.50431    0 2108  916.00000  540.50431  41.0%     -  975s
     0     0  540.53295    0 2143  916.00000  540.53295  41.0%     -  989s
     0     0  540.53746    0 2114  916.00000  540.53746  41.0%     -  994s
     0     0  540.91740    0 2160  916.00000  540.91740  40.9%     - 1031s
     0     0  540.97186    0 2171  916.00000  540.97186  40.9%     - 1051s
     0     0  540.99713    0 2167  916.00000  540.99713  40.9%     - 1062s
     0     0  541.00959    0 2167  916.00000  541.00959  40.9%     - 1070s
     0     0  541.71657    0 2158  916.00000  541.71657  40.9%     - 1144s
     0     0  541.82757    0 2168  916.00000  541.82757  40.8%     - 1171s
     0     0  541.83801    0 2183  916.00000  541.83801  40.8%     - 1182s
     0     0  542.29764    0 2212  916.00000  542.29764  40.8%     - 1233s
     0     0  542.36004    0 2227  916.00000  542.36004  40.8%     - 1261s
     0     0  542.38613    0 2236  916.00000  542.38613  40.8%     - 1270s
     0     0  542.39354    0 2231  916.00000  542.39354  40.8%     - 1277s
     0     0  543.07140    0 2226  916.00000  543.07140  40.7%     - 1340s
     0     0  543.15254    0 2231  916.00000  543.15254  40.7%     - 1375s
     0     0  543.19795    0 2212  916.00000  543.19795  40.7%     - 1389s
     0     0  543.21071    0 2226  916.00000  543.21071  40.7%     - 1399s
     0     0  543.40718    0 2132  916.00000  543.40718  40.7%     - 1428s
     0     0  543.43587    0 2193  916.00000  543.43587  40.7%     - 1451s
     0     0  543.44076    0 2192  916.00000  543.44076  40.7%     - 1456s
     0     0  543.89332    0 2157  916.00000  543.89332  40.6%     - 1503s
     0     0  543.92368    0 2166  916.00000  543.92368  40.6%     - 1513s
     0     0  543.93545    0 2150  916.00000  543.93545  40.6%     - 1520s
     0     0  544.08431    0 2201  916.00000  544.08431  40.6%     - 1546s
     0     0  544.08431    0 2183  916.00000  544.08431  40.6%     - 1555s
     0     2  544.09452    0 2183  916.00000  544.09452  40.6%     - 1706s
     1     3  544.48484    1 2079  916.00000  544.09452  40.6%  9691 1748s
     2     4  549.79596    1 2159  916.00000  544.48515  40.6% 34996 2016s
     3     5  552.79735    2 1934  916.00000  544.48515  40.6% 32053 2130s
     4     6  545.06154    2 2145  916.00000  545.06154  40.5% 26128 2167s
     5     7  545.17313    3 2135  916.00000  545.06154  40.5% 21834 2187s
     6     8  562.08631    3 1923  916.00000  545.17313  40.5% 25704 2368s
     7     9  546.18768    4 2187  916.00000  545.17313  40.5% 24120 2432s
     8    10  553.96134    4 1826  916.00000  546.18768  40.4% 27574 2656s
     9    11  547.97595    5 2155  916.00000  546.18768  40.4% 27858 2800s
    10    12  586.82389    5 1927  916.00000  547.97595  40.2% 31087 3009s
    11    13  548.15812    6 2180  916.00000  547.97665  40.2% 29039 3039s
    12    14  566.97554    7 2047  916.00000  547.97665  40.2% 30821 3202s
    13    15  548.28735    7 2169  916.00000  547.97665  40.2% 28797 3220s
    14    16  549.40714    8 2139  916.00000  547.97665  40.2% 27828 3284s
    15    17  582.67571    8 1748  916.00000  547.97665  40.2% 28655 3429s
    16    18  549.62298    9 2174  916.00000  547.97665  40.2% 27209 3447s

Cutting planes:
  Gomory: 2
  MIR: 65
  StrongCG: 6
  GUB cover: 1
  Zero half: 49
  RLT: 1380

Explored 17 nodes (794934 simplex iterations) in 3600.01 seconds
Thread count was 1 (of 40 available processors)

Solution count 1: 916 

Time limit reached
Best objective 9.160000000000e+02, best bound 5.480000000000e+02, gap 40.1747%

User-callback calls 24935, time in user-callback 0.07 sec
